80

92 23
57 31
59 29
68 44
60 53
43 38
67 63
84 85
87 89
72 82
92 23
57 31
59 29
68 44
60 53
43 38
67 63
84 85
87 89
72 82
92 23
57 31
59 29
68 44
60 53
43 38
67 63
84 85
87 89
72 82
92 23
57 31
59 29
68 44
60 53
43 38
67 63
84 85
87 89
72 82
92 23
57 31
59 29
68 44
60 53
43 38
67 63
84 85
87 89
72 82
92 23
57 31
59 29
68 44
60 53
43 38
67 63
84 85
87 89
72 82
92 23
57 31
59 29
68 44
60 53
43 38
67 63
84 85
87 89
72 82
92 23
57 31
59 29
68 44
60 53
43 38
67 63
84 85
87 89
72 82

200